c FILE /home/rafael/Documents/HappySet/MIHS/inputs/happygen/output/graph_d_regular_k2_p0.5_v50_20241127_082550.txt
c SOURCE This is a d-regular graph formed for the happy graph colouring problem.
c DESCRIPTION It was generated using the problem generator of Rhyd Lewis
c
c GRAPH STATS
c Seed                             = -238408790
c Number of Nodes                  = 50
c Number of colours k              = 2
c Number of pre-assignments        = 25
c Degree of all vertices           = 6
c Density                          = 0.122449
c 
c The degrees of nodes 1 to 50, respectively, are as follows 
c [6, 6, 6, 6, 6, 6, 6, 6, 6, 6, 6, 6, 6, 6, 6, 6, 6, 6, 6, 6, 6, 6, 6, 6, 6, 6, 
c  6, 6, 6, 6, 6, 6, 6, 6, 6, 6, 6, 6, 6, 6, 6, 6, 6, 6, 6, 6, 6, 6, 6, 6] 
c  
p edge 50 150 2
e 1 7
e 1 8
e 1 15
e 1 18
e 1 33
e 1 49
e 2 9
e 2 14
e 2 24
e 2 29
e 2 36
e 2 50
e 3 4
e 3 13
e 3 14
e 3 35
e 3 45
e 3 47
e 4 12
e 4 36
e 4 41
e 4 48
e 4 50
e 5 11
e 5 26
e 5 32
e 5 37
e 5 41
e 5 48
e 6 10
e 6 12
e 6 26
e 6 31
e 6 32
e 6 42
e 7 21
e 7 37
e 7 39
e 7 44
e 7 46
e 8 13
e 8 20
e 8 27
e 8 37
e 8 39
e 9 23
e 9 29
e 9 38
e 9 41
e 9 48
e 10 19
e 10 24
e 10 40
e 10 41
e 10 42
e 11 18
e 11 20
e 11 22
e 11 36
e 11 43
e 12 23
e 12 25
e 12 38
e 12 40
e 13 20
e 13 35
e 13 40
e 13 47
e 14 17
e 14 21
e 14 31
e 14 45
e 15 32
e 15 33
e 15 35
e 15 38
e 15 44
e 16 22
e 16 27
e 16 29
e 16 30
e 16 36
e 16 46
e 17 21
e 17 23
e 17 42
e 17 49
e 17 50
e 18 19
e 18 38
e 18 40
e 18 45
e 19 20
e 19 28
e 19 38
e 19 44
e 20 33
e 20 50
e 21 22
e 21 26
e 21 39
e 22 34
e 22 35
e 22 49
e 23 39
e 23 43
e 23 45
e 24 27
e 24 41
e 24 42
e 24 46
e 25 27
e 25 28
e 25 34
e 25 42
e 25 45
e 26 28
e 26 31
e 26 34
e 27 33
e 27 35
e 28 30
e 28 31
e 28 49
e 29 38
e 29 43
e 29 47
e 30 42
e 30 43
e 30 44
e 30 50
e 31 35
e 31 46
e 32 37
e 32 47
e 32 48
e 33 36
e 33 43
e 34 44
e 34 47
e 34 48
e 36 37
e 37 40
e 39 41
e 39 49
e 40 49
e 43 48
e 44 46
e 45 47
e 46 50
n 2 2
n 3 2
n 4 2
n 5 2
n 8 2
n 9 2
n 10 2
n 11 2
n 12 2
n 13 2
n 16 1
n 17 1
n 18 2
n 30 1
n 31 1
n 32 2
n 33 2
n 37 2
n 39 2
n 40 2
n 41 2
n 44 1
n 46 1
n 47 2
n 48 2
